# 3.4.21.10_group0_PF00089_30-85~3.4.21.7_group0_PF00089_30-85.sdpA
# All alignment positions within 5\AA of a ligand/cat site passing the sdpA filter.  Column indices start with 0.
14
49
160
194
218
235
